SCIP version 5.0.0 [precision: 8 byte] [memory: block] [mode: optimized] [LP solver: NONE] [GitHash: 3bbd232]
Copyright (C) 2002-2017 Konrad-Zuse-Zentrum fuer Informationstechnik Berlin (ZIB)

External codes: 
  Readline EditLine w  GNU library for command line editing (gnu.org/s/readline)
  CppAD 20160000.1     Algorithmic Differentiation of C++ algorithms developed by B. Bell (www.coin-or.org/CppAD)
  ZLIB 1.2.5           General purpose compression library by J. Gailly and M. Adler (zlib.net)
  GMP 6.1.2            GNU Multiple Precision Arithmetic Library developed by T. Granlund (gmplib.org)

user parameter file <scip.set> not found - using default parameters

read problem <../../Split_data/output/breast/0/4_sample_breast.logreg>
============

File name	:	../../Split_data/output/breast/0/4_sample_breast.logreg
Problem name 	:	4_sample_breast
Number of data	:	156
Number of var	:	33
The given data has linear dependence
17 sets of column vector are linearly dependent:
elements are all 0
elements are all 0
elements are all 0
elements are all 0
elements are all 0
elements are all 0

[dim=1] time: 0.003515
[dim=2] time: 0.005808
[dim=3] time: 0.009449
[dim=4] time: 0.012083
[dim=5] time: 0.014426
[dim=6] time: 0.016561
[dim=7] time: 0.018492
[dim=8] time: 0.020333
[dim=9] Time of forward = 0.022036sec.
AIC: 136.703
k: 8

[dim=16] time: 0.00723
[dim=15] time: 0.009562
[dim=14] time: 0.011834
[dim=13] time: 0.01413
[dim=12] time: 0.016288
[dim=11] time: 0.018258
[dim=10] time: 0.020055
[dim=9] time: 0.021855
[dim=8] time: 0.023252
[dim=7] Time of backward = 0.024619sec.
AIC: 137.029
k: 8
